 ! --------------------------------------------------- CP Optimizer 22.1.1.0 --
 ! Satisfiability problem - 60250 variables, 675299 constraints
 ! Presolve      : 37500 extractables eliminated
 ! TimeLimit            = 3600
 ! Workers              = 1
 ! Initial process time : 6.47s (6.46s extraction + 0.02s propagation)
 !  . Log search space  : 627281.0 (before), 627281.0 (after)
 !  . Memory usage      : 444.8 MB (before), 444.8 MB (after)
 ! Using sequential search.
 ! ----------------------------------------------------------------------------
 !               Branches  Non-fixed            Branch decision
                     1099      59481        F          presenceOf(copy_bus_parking:23_0)
                     2282      57901        F          presenceOf(copy_trips:38_0)
                     3000      55048                   presenceOf(copy_bus_parking:43_185)
                     4000      26657                   presenceOf(copy_lane_parking:3_352)
                     5000      39195                   presenceOf(copy_lane_parking:3_67)
                     6000      38581                   presenceOf(copy_trips:9_3)
                     7000      43216        F          presenceOf(copy_trips:8_0)
                     8000      42771                   presenceOf(copy_lane_parking:3_283)
                     9000      42978                  !presenceOf(copy_trips:22_102)
                    10000      50393                   presenceOf(copy_lane_parking:2_107)
                    11000      20689                   presenceOf(copy_lane_parking:7_69)
                    12000      35353                   presenceOf(copy_lane_parking:0_61)
                    13000      54170                   presenceOf(copy_lane_parking:6_372)
                    14000      44138                   presenceOf(copy_lane_parking:4_118)
                    15000      20666                   presenceOf(copy_lane_parking:5_50)
                    16000      38602                   presenceOf(copy_lane_parking:4_343)
                    17000      20692                  !presenceOf(copy_bus_parking:9_251)
                    18000      20688                  !presenceOf(copy_trips:45_266)
                    19000      20688                   presenceOf(copy_bus_parking:47_356)
                    20000      38593        F         !presenceOf(copy_trips:5_371)
 ! Time = 47.89s, Average fail depth = 432, Memory usage = 1.6 GB
 !               Branches  Non-fixed            Branch decision
                    21000      38587        F          presenceOf(copy_bus_parking:28_373)
                    22000      38587        F          presenceOf(copy_bus_parking:3_373)
                    23000      38575                  !presenceOf(copy_trips:38_370)
                    24000      20689        F          presenceOf(copy_trips:11_251)
                    25000      20689        F          presenceOf(copy_bus_parking:43_373)
                    26000      36045                   presenceOf(copy_lane_parking:3_304)
                    27000      41653        F          presenceOf(copy_bus_parking:19_23)
                    28000      41686                  !presenceOf(copy_bus_parking:43_18)
                    29000      43110                   presenceOf(copy_trips:38_132)
                    30000      26104        F          presenceOf(copy_bus_parking:38_46)
                    31000      26104        F          presenceOf(copy_bus_parking:11_46)
                    32000      26104                  !presenceOf(copy_bus_parking:22_46)
                    33000      26104        F          presenceOf(copy_trips:46_0)
                    34000      35770                   presenceOf(copy_lane_parking:2_159)
                    35000      20821                  !presenceOf(copy_trips:40_18)
                    36000      20679                  !presenceOf(copy_trips:36_269)
                    37000      20679        F          presenceOf(copy_bus_parking:2_1)
                    38000      38608                  !presenceOf(copy_trips:48_371)
                    39000      20686                  !presenceOf(copy_trips:16_251)
                    40000      20686                   presenceOf(copy_bus_parking:29_253)
 ! Time = 90.22s, Average fail depth = 473, Memory usage = 1.6 GB
 !               Branches  Non-fixed            Branch decision
                    41000      20686                  !presenceOf(copy_trips:41_251)
                    42000      20686                  !presenceOf(copy_trips:41_251)
                    43000      20520        F          presenceOf(copy_trips:19_369)
                    44000      20520                  !presenceOf(copy_bus_parking:23_266)
                    45000      20520        F          presenceOf(copy_trips:19_369)
                    46000      20520        F          presenceOf(copy_trips:7_369)
                    47000      20520        F          presenceOf(copy_trips:20_369)
                    48000      20520                  !presenceOf(copy_bus_parking:8_266)
                    49000      20520                  !presenceOf(copy_bus_parking:23_266)
                    50000      20520                  !presenceOf(copy_bus_parking:49_266)
                    51000      20520        F          presenceOf(copy_trips:39_369)
                    52000      20520                  !presenceOf(copy_bus_parking:38_266)
                    53000      20520                  !presenceOf(copy_bus_parking:6_266)
                    54000      20520                  !presenceOf(copy_bus_parking:33_266)
                    55000      20520        F          presenceOf(copy_trips:23_369)
                    56000      20520                   presenceOf(copy_bus_parking:49_211)
                    57000      36788                  !presenceOf(copy_trips:5_40)
                    58000      26410                  !presenceOf(copy_bus_parking:2_37)
                    59000      26410                   presenceOf(copy_lane_parking:4_261)
                    60000      42307                   presenceOf(copy_bus_parking:46_92)
 ! Time = 109.30s, Average fail depth = 534, Memory usage = 1.6 GB
 !               Branches  Non-fixed            Branch decision
                    61000      38590        F          presenceOf(copy_trips:27_373)
                    62000      38587                   presenceOf(copy_lane_parking:5_179)
                    63000      42772        F          presenceOf(copy_trips:20_30)
                    64000      42772                  !presenceOf(copy_trips:27_18)
                    65000      42772        F          presenceOf(copy_bus_parking:46_32)
                    66000      42772        F          presenceOf(copy_bus_parking:19_102)
                    67000      20679                  !presenceOf(copy_trips:39_269)
                    68000      20679                  !presenceOf(copy_trips:26_8)
                    69000      38587        F          presenceOf(copy_bus_parking:17_373)
                    70000      38578                   presenceOf(copy_lane_parking:7_225)
                    71000      38605        F          presenceOf(copy_trips:11_0)
                    72000      54759                   presenceOf(copy_lane_parking:2_249)
                    73000      42712                  !presenceOf(copy_trips:2_18)
                    74000      38584            256  = endOf(start_parking:11)
                    75000      59481        F          presenceOf(copy_trips:15_0)
                    76000      50588                   presenceOf(copy_lane_parking:4_270)
                    77000      38587                  !presenceOf(copy_trips:40_373)
                    78000      38584                  !presenceOf(copy_trips:49_373)
                    79000      38584                  !presenceOf(copy_trips:11_373)
                    80000      38584        F          presenceOf(copy_trips:15_31)
 ! Time = 145.68s, Average fail depth = 497, Memory usage = 1.6 GB
 !               Branches  Non-fixed            Branch decision
                    81000      42771                   presenceOf(copy_lane_parking:4_159)
                    82000      25735                   presenceOf(copy_lane_parking:1_119)
                    83000      55684                  !presenceOf(copy_trips:18_6)
                    84000      42018                   presenceOf(copy_lane_parking:2_174)
                    85000      20684                  !presenceOf(copy_trips:2_253)
                    86000      20684        F          presenceOf(copy_bus_parking:31_251)
                    87000      20684        F          presenceOf(copy_bus_parking:31_251)
                    88000      20684        F          presenceOf(copy_bus_parking:31_251)
                    89000      20684        F          presenceOf(copy_bus_parking:22_251)
                    90000      20684        F          presenceOf(copy_bus_parking:31_251)
                    91000      20684        F          presenceOf(copy_bus_parking:22_251)
                    92000      20684                  !presenceOf(copy_trips:1_253)
                    93000      20684        F          presenceOf(copy_bus_parking:22_251)
                    94000      20684        F          presenceOf(copy_bus_parking:26_251)
                    95000      20684        F          presenceOf(copy_bus_parking:31_251)
                    96000      20684        F          presenceOf(copy_bus_parking:22_251)
                    97000      20684        F          presenceOf(copy_bus_parking:26_251)
                    98000      20684        F          presenceOf(copy_bus_parking:1_371)
                    99000      38593        F          presenceOf(copy_trips:13_373)
                     100k      38605                   presenceOf(copy_trips:28_306)
 ! Time = 168.58s, Average fail depth = 515, Memory usage = 1.6 GB
 !               Branches  Non-fixed            Branch decision
                     101k      38590        F          presenceOf(copy_trips:8_371)
                     102k      38587        F          presenceOf(copy_trips:13_371)
                     103k      38587                   presenceOf(copy_trips:7_371)
                     104k      38590                   presenceOf(copy_lane_parking:6_113)
                     105k      35016                  !presenceOf(copy_trips:40_7)
                     106k      35016        F          presenceOf(copy_bus_parking:28_2)
                     107k      35016                  !presenceOf(copy_trips:27_7)
                     108k      35016        F          presenceOf(copy_bus_parking:43_2)
                     109k      20537        F          presenceOf(copy_trips:11_251)
                     110k      20537            256 != endOf(start_parking:48)
                     111k      38602        F          presenceOf(copy_bus_parking:33_371)
                     112k      38602        F          presenceOf(copy_bus_parking:9_371)
                     113k      38602                  !presenceOf(copy_trips:20_370)
                     114k      38602        F         !presenceOf(copy_bus_parking:20_373)
                     115k      38611        F          presenceOf(copy_bus_parking:4_371)
                     116k      38611        F          presenceOf(copy_bus_parking:38_371)
                     117k      38602        F         !presenceOf(copy_bus_parking:20_373)
                     118k      38602        F          presenceOf(copy_bus_parking:10_371)
                     119k      38602        F         !presenceOf(copy_bus_parking:20_373)
                     120k      38602                   presenceOf(copy_bus_parking:3_371)
 ! Time = 196.66s, Average fail depth = 507, Memory usage = 1.6 GB
 !               Branches  Non-fixed            Branch decision
                     121k      38605        F          presenceOf(copy_bus_parking:33_371)
                     122k      38602        F          presenceOf(copy_bus_parking:45_371)
                     123k      38602        F          presenceOf(copy_bus_parking:25_371)
                     124k      26410        F          presenceOf(copy_bus_parking:31_37)
                     125k      26410                   presenceOf(copy_bus_parking:42_3)
                     126k      35091        F          presenceOf(copy_bus_parking:28_60)
                     127k      38593        F         !presenceOf(copy_bus_parking:5_373)
                     128k      38590                   presenceOf(copy_lane_parking:3_38)
                     129k      42319                   presenceOf(copy_trips:45_48)
                     130k      36420                  !presenceOf(copy_bus_parking:25_3)
                     131k      36420                  !presenceOf(copy_trips:39_38)
                     132k      44081            256  = endOf(start_parking:40)
                     133k      43308        F          presenceOf(copy_trips:27_18)
                     134k      38599        F          presenceOf(copy_bus_parking:17_373)
                     135k      26109        F          presenceOf(copy_bus_parking:49_36)
                     136k      26112                  !presenceOf(copy_bus_parking:9_46)
                     137k      26642                  !presenceOf(copy_bus_parking:9_371)
                     138k      36821                   presenceOf(copy_bus_parking:6_13)
                     139k      35528        F          presenceOf(copy_bus_parking:7_0)
                     140k      49464                   presenceOf(copy_trips:15_257)
 ! Time = 239.75s, Average fail depth = 501, Memory usage = 1.6 GB
 !               Branches  Non-fixed            Branch decision
                     141k      38584                   presenceOf(copy_lane_parking:4_94)
                     142k      42654        F          presenceOf(copy_bus_parking:36_33)
                     143k      42654        F          presenceOf(copy_bus_parking:25_33)
                     144k      42654                  !presenceOf(copy_bus_parking:21_33)
                     145k      42657                   presenceOf(copy_lane_parking:2_199)
                     146k      20691        F          presenceOf(copy_bus_parking:33_251)
                     147k      20694        F          presenceOf(copy_trips:26_0)
                     148k      26416                  !presenceOf(copy_trips:7_37)
                     149k      26416                   presenceOf(copy_lane_parking:6_63)
                     150k      42843                  !presenceOf(copy_trips:28_32)
                     151k      42700        F          presenceOf(copy_trips:33_33)
                     152k      42673                  !presenceOf(copy_trips:42_31)
                     153k      42700                   presenceOf(copy_lane_parking:6_94)
                     154k      42085        F          presenceOf(copy_bus_parking:46_67)
                     155k      42050        F          presenceOf(copy_bus_parking:32_67)
                     156k      42053        F          presenceOf(copy_bus_parking:40_67)
                     157k      42053                  !presenceOf(copy_bus_parking:5_21)
                     158k      42050        F          presenceOf(copy_bus_parking:1_67)
                     159k      42050                  !presenceOf(copy_trips:5_22)
                     160k      42088        F          presenceOf(copy_bus_parking:44_67)
 ! Time = 278.66s, Average fail depth = 492, Memory usage = 1.6 GB
 !               Branches  Non-fixed            Branch decision
                     161k      42053                  !presenceOf(copy_bus_parking:8_21)
                     162k      42050                  !presenceOf(copy_bus_parking:47_21)
                     163k      42050                  !presenceOf(copy_bus_parking:1_67)
                     164k      42050        F          presenceOf(copy_bus_parking:8_67)
                     165k      42053        F          presenceOf(copy_bus_parking:33_67)
                     166k      42053                  !presenceOf(copy_bus_parking:35_21)
                     167k      35620        F          presenceOf(copy_bus_parking:43_3)
                     168k      35620                   presenceOf(copy_bus_parking:36_2)
                     169k      35620                  !presenceOf(copy_bus_parking:41_3)
                     170k      35620                   presenceOf(copy_lane_parking:5_92)
                     171k      20520                   presenceOf(copy_lane_parking:6_256)
                     172k      41768                  !presenceOf(copy_bus_parking:26_17)
                     173k      41768        F          presenceOf(copy_trips:5_34)
                     174k      38596        F          presenceOf(copy_bus_parking:31_373)
                     175k      38590                  !presenceOf(copy_bus_parking:34_371)
                     176k      38590        F          presenceOf(copy_bus_parking:31_373)
                     177k      38593                  !presenceOf(copy_bus_parking:28_371)
                     178k      38590                  !presenceOf(copy_bus_parking:34_371)
                     179k      38590                  !presenceOf(copy_bus_parking:19_371)
                     180k      38590                  !presenceOf(copy_bus_parking:1_371)
 ! Time = 304.33s, Average fail depth = 492, Memory usage = 1.6 GB
 !               Branches  Non-fixed            Branch decision
                     181k      38593                  !presenceOf(copy_bus_parking:49_371)
                     182k      38593                  !presenceOf(copy_bus_parking:18_371)
                     183k      38590                  !presenceOf(copy_bus_parking:1_371)
                     184k      38590                  !presenceOf(copy_bus_parking:39_371)
                     185k      38590                  !presenceOf(copy_bus_parking:1_371)
                     186k      38590        F         !presenceOf(copy_bus_parking:41_371)
                     187k      38596                  !presenceOf(copy_bus_parking:18_371)
                     188k      38590                  !presenceOf(copy_bus_parking:47_371)
                     189k      38590        F          presenceOf(copy_bus_parking:31_373)
                     190k      38593                  !presenceOf(copy_bus_parking:1_371)
                     191k      38593                  !presenceOf(copy_bus_parking:27_371)
                     192k      38593                  !presenceOf(copy_bus_parking:17_371)
                     193k      38593                  !presenceOf(copy_bus_parking:22_371)
                     194k      38593                  !presenceOf(copy_bus_parking:20_371)
                     195k      38593                  !presenceOf(copy_bus_parking:29_371)
                     196k      38596                  !presenceOf(copy_bus_parking:13_371)
                     197k      38596                  !presenceOf(copy_bus_parking:30_371)
                     198k      38602                  !presenceOf(copy_bus_parking:44_371)
                     199k      38593                  !presenceOf(copy_bus_parking:38_371)
                     200k      38593                  !presenceOf(copy_bus_parking:37_371)
 ! Time = 322.67s, Average fail depth = 493, Memory usage = 1.6 GB
 !               Branches  Non-fixed            Branch decision
                     201k      38593                  !presenceOf(copy_bus_parking:10_371)
                     202k      38593                  !presenceOf(copy_bus_parking:6_371)
                     203k      38593                  !presenceOf(copy_bus_parking:19_371)
                     204k      38599                  !presenceOf(copy_bus_parking:18_371)
                     205k      38596                  !presenceOf(copy_bus_parking:6_371)
                     206k      38596                  !presenceOf(copy_bus_parking:29_371)
                     207k      38596                  !presenceOf(copy_bus_parking:7_371)
                     208k      38596                  !presenceOf(copy_bus_parking:35_371)
                     209k      38596                  !presenceOf(copy_bus_parking:42_371)
                     210k      38599                  !presenceOf(copy_bus_parking:21_371)
                     211k      38599                  !presenceOf(copy_bus_parking:42_371)
                     212k      38596                  !presenceOf(copy_bus_parking:2_371)
                     213k      38596                  !presenceOf(copy_bus_parking:33_371)
                     214k      38596                  !presenceOf(copy_bus_parking:0_371)
                     215k      38596                  !presenceOf(copy_bus_parking:18_371)
                     216k      38596                  !presenceOf(copy_bus_parking:19_371)
                     217k      38596                  !presenceOf(copy_bus_parking:28_371)
                     218k      38596                  !presenceOf(copy_bus_parking:5_371)
                     219k      38590                  !presenceOf(copy_bus_parking:19_371)
                     220k      38590                  !presenceOf(copy_bus_parking:48_371)
 ! Time = 340.60s, Average fail depth = 495, Memory usage = 1.6 GB
 !               Branches  Non-fixed            Branch decision
                     221k      38590        F          presenceOf(copy_bus_parking:31_373)
                     222k      38590                  !presenceOf(copy_bus_parking:36_371)
                     223k      38590                  !presenceOf(copy_bus_parking:3_371)
                     224k      38590        F          presenceOf(copy_trips:21_370)
                     225k      38593        F         !presenceOf(copy_trips:5_15)
                     226k      42503            on charge:7_71
                     227k      25956           2053  = startOf(charge:31_148)
                     228k      12761                  !presenceOf(copy_trips:17_296)
                     229k       1267        F          presenceOf(copy_trips:13_374)
                     230k         49                  !presenceOf(copy_trips:12_15)
                     231k      46992                  !presenceOf(copy_trips:15_84)
                     232k      45032                   presenceOf(copy_lane_parking:2_210)
                     233k      38605                   presenceOf(copy_lane_parking:3_222)
                     234k      20528                   presenceOf(copy_lane_parking:6_284)
                     235k      25729                  !presenceOf(copy_trips:31_38)
                     236k      25877            on charge:40_45
                     237k      41304                  !presenceOf(copy_trips:35_13)
                     238k      44602        F          presenceOf(copy_trips:13_66)
                     239k      41554        F          presenceOf(copy_trips:2_122)
                     240k      28716           2042  = startOf(charge:22_179)
 ! Time = 379.55s, Average fail depth = 487, Memory usage = 1.7 GB
 !               Branches  Non-fixed            Branch decision
                     241k      20647        F          presenceOf(copy_trips:47_244)
                     242k       9946        F          presenceOf(copy_trips:23_312)
                     243k       8620                   presenceOf(copy_trips:0_0)
                     244k      43723        F          presenceOf(copy_trips:15_69)
                     245k      31610                  !presenceOf(copy_trips:20_181)
                     246k      20195                   presenceOf(copy_lane_parking:6_144)
                     247k       4843                   presenceOf(copy_lane_parking:4_331)
 *                   247k  390.21s                   -
 ! ----------------------------------------------------------------------------
 ! Search completed, 1 solution found.
 ! ----------------------------------------------------------------------------
 ! Number of branches     : 247509
 ! Number of fails        : 96808
 ! Total memory usage     : 1.8 GB (1.8 GB CP Optimizer + 0.0 GB Concert)
 ! Time spent in solve    : 390.22s (383.77s engine + 6.46s extraction)
 ! Search speed (br. / s) : 644.9
 ! ----------------------------------------------------------------------------
